12 23
1 3 80
1 4 289
1 8 153
2 6 327
2 8 480
2 9 528
2 12 434
3 8 76
3 12 266
4 5 159
4 7 286
4 12 264
5 7 182
5 12 410
6 9 649
6 12 757
7 11 643
7 12 462
8 12 263
9 10 285
9 11 300
10 11 85
10 12 724
